%Tablero
sizefila = 6;
sizecolumna = 6;
margen = [|1, 1, 1, 1, 1, 1
          |1, 1, 0, 0, 1, 1
          |1, 0, 0, 0, 0, 1
          |1, 0, 0, 1, 0, 0
          |1, 1, 0, 0, 0, 0
          |1, 1, 1, 0, 0, 1|];

derecha =[|0,  0,   0,  0,  0,  0
          |0,  5,   0,  0,  0,  0
          |17, 0,   0,  0,  0,  0
          |6,  0,   0,  4,  0,  0
          |0,  10,  0,  0,  0,  0
          |0,  0,   3,  0,  0,  0|];

abajo =  [|0,  0,  11,   4,  0,  0
          |0,  14,   0,  0,  10, 0
          |0,  0,    0,  0,  0,  3
          |0,  0,    0,  3,  0,  0
          |0,  0,    0,  0,  0,  0
          |0,  0,    0,  0,  0,  0|];
